Version identifier: 20.1.0.0 | 2020-11-10 | 9bedb6d68
Found incumbent of value 0.000000 after 0.00 sec. (0.00 ticks)
Tried aggregator 2 times.
MIP Presolve eliminated 89 rows and 20 columns.
MIP Presolve modified 10 coefficients.
Aggregator did 34 substitutions.
Reduced MIP has 56 rows, 59 columns, and 166 nonzeros.
Reduced MIP has 37 binaries, 0 generals, 0 SOSs, and 22 indicators.
Presolve time = 0.00 sec. (0.32 ticks)
Probing fixed 0 vars, tightened 11 bounds.
Probing changed sense of 11 constraints.
Probing time = 0.00 sec. (0.16 ticks)
Tried aggregator 1 time.
MIP Presolve eliminated 50 rows and 50 columns.
MIP Presolve modified 54 coefficients.
Reduced MIP has 5 rows, 9 columns, and 23 nonzeros.
Reduced MIP has 9 binaries, 0 generals, 0 SOSs, and 0 indicators.
Presolve time = 0.00 sec. (0.16 ticks)
Probing time = 0.00 sec. (0.01 ticks)
Tried aggregator 1 time.
MIP Presolve eliminated 1 rows and 2 columns.
MIP Presolve modified 4 coefficients.
Reduced MIP has 4 rows, 7 columns, and 16 nonzeros.
Reduced MIP has 7 binaries, 0 generals, 0 SOSs, and 0 indicators.
Presolve time = 0.00 sec. (0.02 ticks)
Probing time = 0.00 sec. (0.00 ticks)
Tried aggregator 1 time.
MIP Presolve eliminated 2 rows and 4 columns.
MIP Presolve modified 6 coefficients.
Reduced MIP has 2 rows, 3 columns, and 4 nonzeros.
Reduced MIP has 3 binaries, 0 generals, 0 SOSs, and 0 indicators.
Presolve time = 0.00 sec. (0.02 ticks)
Probing time = 0.00 sec. (0.00 ticks)
Tried aggregator 1 time.
MIP Presolve eliminated 2 rows and 3 columns.
All rows and columns eliminated.
Presolve time = 0.00 sec. (0.00 ticks)

Root node processing (before b&c):
  Real time             =    0.01 sec. (0.78 ticks)
Parallel b&c, 10 threads:
  Real time             =    0.00 sec. (0.00 ticks)
  Sync time (average)   =    0.00 sec.
  Wait time (average)   =    0.00 sec.
                          ------------
Total (root+branch&cut) =    0.01 sec. (0.78 ticks)
